p cnf 200 1110
-101 94 0
-101 -13 0
-101 17 0
-101 21 0
-101 -25 0
-101 -79 0
-101 -70 0
-101 56 0
-101 -26 0
-101 -14 0
101 -94 13 -17 -21 25 79 70 -56 26 14 0
-102 1 0
-102 7 0
-102 15 0
-102 -72 0
-102 27 0
-102 -11 0
-102 50 0
-102 46 0
-102 -61 0
-102 -85 0
102 -1 -7 -15 72 -27 11 -50 -46 61 85 0
-103 44 0
-103 34 0
-103 15 0
-103 2 0
-103 59 0
-103 52 0
-103 42 0
-103 -3 0
-103 61 0
-103 12 0
103 -44 -34 -15 -2 -59 -52 -42 3 -61 -12 0
-104 2 0
-104 -17 0
-104 74 0
-104 18 0
-104 -65 0
-104 46 0
-104 -53 0
-104 -42 0
-104 -54 0
-104 69 0
104 -2 17 -74 -18 65 -46 53 42 54 -69 0
-105 59 0
-105 -20 0
-105 27 0
-105 57 0
-105 90 0
-105 32 0
-105 -2 0
-105 38 0
-105 -83 0
-105 -42 0
105 -59 20 -27 -57 -90 -32 2 -38 83 42 0
-106 -43 0
-106 -31 0
-106 -84 0
-106 55 0
-106 19 0
-106 -73 0
-106 42 0
-106 -69 0
-106 2 0
-106 10 0
106 43 31 84 -55 -19 73 -42 69 -2 -10 0
-107 -3 0
-107 -79 0
-107 38 0
-107 31 0
-107 -80 0
-107 2 0
-107 -33 0
-107 100 0
-107 -40 0
-107 -12 0
107 3 79 -38 -31 80 -2 33 -100 40 12 0
-108 19 0
-108 79 0
-108 -35 0
-108 -12 0
-108 8 0
-108 -40 0
-108 -75 0
-108 52 0
-108 34 0
-108 -22 0
108 -19 -79 35 12 -8 40 75 -52 -34 22 0
-109 46 0
-109 -49 0
-109 57 0
-109 -29 0
-109 -14 0
-109 10 0
-109 -80 0
-109 50 0
-109 63 0
-109 -65 0
109 -46 49 -57 29 14 -10 80 -50 -63 65 0
-110 -54 0
-110 93 0
-110 -7 0
-110 -72 0
-110 -50 0
-110 46 0
-110 -45 0
-110 -25 0
-110 41 0
-110 -66 0
110 54 -93 7 72 50 -46 45 25 -41 66 0
101 102 103 104 105 106 107 108 109 110 0
-111 73 0
-111 24 0
-111 32 0
-111 -35 0
-111 29 0
-111 89 0
-111 -26 0
-111 -16 0
-111 -23 0
-111 94 0
111 -73 -24 -32 35 -29 -89 26 16 23 -94 0
-112 -26 0
-112 -8 0
-112 66 0
-112 -1 0
-112 4 0
-112 -18 0
-112 -94 0
-112 -76 0
-112 -29 0
-112 -38 0
112 26 8 -66 1 -4 18 94 76 29 38 0
-113 -65 0
-113 1 0
-113 48 0
-113 -3 0
-113 85 0
-113 10 0
-113 33 0
-113 82 0
-113 -83 0
-113 -26 0
113 65 -1 -48 3 -85 -10 -33 -82 83 26 0
-114 -4 0
-114 41 0
-114 -6 0
-114 -26 0
-114 22 0
-114 -77 0
-114 -13 0
-114 -89 0
-114 -64 0
-114 62 0
114 4 -41 6 26 -22 77 13 89 64 -62 0
-115 -64 0
-115 -16 0
-115 -53 0
-115 -94 0
-115 -56 0
-115 -74 0
-115 -84 0
-115 -58 0
-115 -85 0
-115 -52 0
115 64 16 53 94 56 74 84 58 85 52 0
-116 -35 0
-116 31 0
-116 58 0
-116 -1 0
-116 64 0
-116 -9 0
-116 89 0
-116 -54 0
-116 28 0
-116 67 0
116 35 -31 -58 1 -64 9 -89 54 -28 -67 0
-117 -18 0
-117 -51 0
-117 70 0
-117 -57 0
-117 96 0
-117 56 0
-117 40 0
-117 -92 0
-117 -24 0
-117 88 0
117 18 51 -70 57 -96 -56 -40 92 24 -88 0
-118 42 0
-118 85 0
-118 -47 0
-118 -93 0
-118 64 0
-118 -98 0
-118 96 0
-118 -49 0
-118 -12 0
-118 -26 0
118 -42 -85 47 93 -64 98 -96 49 12 26 0
-119 -95 0
-119 15 0
-119 -45 0
-119 37 0
-119 2 0
-119 -91 0
-119 -81 0
-119 -29 0
-119 -67 0
-119 57 0
119 95 -15 45 -37 -2 91 81 29 67 -57 0
-120 -71 0
-120 -65 0
-120 39 0
-120 70 0
-120 -21 0
-120 -62 0
-120 45 0
-120 -44 0
-120 -26 0
-120 -64 0
120 71 65 -39 -70 21 62 -45 44 26 64 0
111 112 113 114 115 116 117 118 119 120 0
-121 -12 0
-121 -22 0
-121 35 0
-121 -4 0
-121 40 0
-121 53 0
-121 -31 0
-121 -57 0
-121 -62 0
-121 46 0
121 12 22 -35 4 -40 -53 31 57 62 -46 0
-122 33 0
-122 -80 0
-122 70 0
-122 -76 0
-122 -4 0
-122 45 0
-122 64 0
-122 -48 0
-122 -31 0
-122 91 0
122 -33 80 -70 76 4 -45 -64 48 31 -91 0
-123 -83 0
-123 53 0
-123 88 0
-123 93 0
-123 11 0
-123 8 0
-123 -78 0
-123 42 0
-123 39 0
-123 -97 0
123 83 -53 -88 -93 -11 -8 78 -42 -39 97 0
-124 -3 0
-124 72 0
-124 44 0
-124 -27 0
-124 86 0
-124 41 0
-124 -19 0
-124 -35 0
-124 61 0
-124 -88 0
124 3 -72 -44 27 -86 -41 19 35 -61 88 0
-125 49 0
-125 73 0
-125 52 0
-125 -64 0
-125 50 0
-125 -14 0
-125 96 0
-125 81 0
-125 53 0
-125 40 0
125 -49 -73 -52 64 -50 14 -96 -81 -53 -40 0
-126 -52 0
-126 -76 0
-126 -37 0
-126 -65 0
-126 -23 0
-126 55 0
-126 -36 0
-126 19 0
-126 -34 0
-126 -22 0
126 52 76 37 65 23 -55 36 -19 34 22 0
-127 10 0
-127 -4 0
-127 39 0
-127 67 0
-127 -29 0
-127 -63 0
-127 13 0
-127 26 0
-127 -28 0
-127 33 0
127 -10 4 -39 -67 29 63 -13 -26 28 -33 0
-128 -72 0
-128 -37 0
-128 -14 0
-128 12 0
-128 58 0
-128 25 0
-128 80 0
-128 -75 0
-128 -51 0
-128 30 0
128 72 37 14 -12 -58 -25 -80 75 51 -30 0
-129 44 0
-129 -76 0
-129 81 0
-129 -94 0
-129 -42 0
-129 -35 0
-129 -69 0
-129 -91 0
-129 10 0
-129 37 0
129 -44 76 -81 94 42 35 69 91 -10 -37 0
-130 -15 0
-130 -67 0
-130 79 0
-130 10 0
-130 70 0
-130 -55 0
-130 53 0
-130 -30 0
-130 -20 0
-130 13 0
130 15 67 -79 -10 -70 55 -53 30 20 -13 0
121 122 123 124 125 126 127 128 129 130 0
-131 83 0
-131 -85 0
-131 -55 0
-131 7 0
-131 -34 0
-131 6 0
-131 1 0
-131 35 0
-131 -39 0
-131 43 0
131 -83 85 55 -7 34 -6 -1 -35 39 -43 0
-132 99 0
-132 -17 0
-132 -65 0
-132 50 0
-132 -22 0
-132 73 0
-132 12 0
-132 -49 0
-132 -96 0
-132 -63 0
132 -99 17 65 -50 22 -73 -12 49 96 63 0
-133 -42 0
-133 15 0
-133 88 0
-133 -86 0
-133 -46 0
-133 -84 0
-133 -38 0
-133 -100 0
-133 -35 0
-133 -96 0
133 42 -15 -88 86 46 84 38 100 35 96 0
-134 -23 0
-134 8 0
-134 21 0
-134 80 0
-134 6 0
-134 66 0
-134 -55 0
-134 -75 0
-134 93 0
-134 -86 0
134 23 -8 -21 -80 -6 -66 55 75 -93 86 0
-135 -97 0
-135 30 0
-135 -15 0
-135 96 0
-135 -24 0
-135 76 0
-135 79 0
-135 46 0
-135 61 0
-135 -62 0
135 97 -30 15 -96 24 -76 -79 -46 -61 62 0
-136 31 0
-136 21 0
-136 69 0
-136 51 0
-136 -54 0
-136 25 0
-136 79 0
-136 89 0
-136 -90 0
-136 82 0
136 -31 -21 -69 -51 54 -25 -79 -89 90 -82 0
-137 71 0
-137 50 0
-137 -66 0
-137 17 0
-137 -44 0
-137 55 0
-137 -89 0
-137 39 0
-137 83 0
-137 -59 0
137 -71 -50 66 -17 44 -55 89 -39 -83 59 0
-138 -16 0
-138 -78 0
-138 -41 0
-138 -68 0
-138 -63 0
-138 -92 0
-138 -85 0
-138 -53 0
-138 96 0
-138 -71 0
138 16 78 41 68 63 92 85 53 -96 71 0
-139 23 0
-139 54 0
-139 -58 0
-139 80 0
-139 77 0
-139 -79 0
-139 -87 0
-139 10 0
-139 -98 0
-139 -41 0
139 -23 -54 58 -80 -77 79 87 -10 98 41 0
-140 -18 0
-140 -97 0
-140 49 0
-140 -42 0
-140 61 0
-140 -23 0
-140 -98 0
-140 -48 0
-140 -12 0
-140 -32 0
140 18 97 -49 42 -61 23 98 48 12 32 0
131 132 133 134 135 136 137 138 139 140 0
-141 -55 0
-141 4 0
-141 72 0
-141 8 0
-141 -35 0
-141 -50 0
-141 99 0
-141 33 0
-141 -2 0
-141 90 0
141 55 -4 -72 -8 35 50 -99 -33 2 -90 0
-142 74 0
-142 75 0
-142 84 0
-142 99 0
-142 31 0
-142 -13 0
-142 53 0
-142 62 0
-142 -57 0
-142 -42 0
142 -74 -75 -84 -99 -31 13 -53 -62 57 42 0
-143 -100 0
-143 95 0
-143 82 0
-143 5 0
-143 -53 0
-143 -77 0
-143 65 0
-143 -73 0
-143 48 0
-143 14 0
143 100 -95 -82 -5 53 77 -65 73 -48 -14 0
-144 -17 0
-144 -33 0
-144 86 0
-144 -100 0
-144 -99 0
-144 -36 0
-144 -11 0
-144 32 0
-144 35 0
-144 -13 0
144 17 33 -86 100 99 36 11 -32 -35 13 0
-145 -54 0
-145 78 0
-145 95 0
-145 12 0
-145 -43 0
-145 -79 0
-145 -62 0
-145 31 0
-145 -21 0
-145 -61 0
145 54 -78 -95 -12 43 79 62 -31 21 61 0
-146 -94 0
-146 18 0
-146 27 0
-146 10 0
-146 -74 0
-146 95 0
-146 -82 0
-146 9 0
-146 -56 0
-146 -14 0
146 94 -18 -27 -10 74 -95 82 -9 56 14 0
-147 -93 0
-147 95 0
-147 79 0
-147 -85 0
-147 48 0
-147 -94 0
-147 -46 0
-147 37 0
-147 -13 0
-147 61 0
147 93 -95 -79 85 -48 94 46 -37 13 -61 0
-148 -7 0
-148 -54 0
-148 85 0
-148 -10 0
-148 -20 0
-148 -42 0
-148 -59 0
-148 -13 0
-148 60 0
-148 -47 0
148 7 54 -85 10 20 42 59 13 -60 47 0
-149 23 0
-149 -43 0
-149 -15 0
-149 60 0
-149 64 0
-149 -33 0
-149 -29 0
-149 -83 0
-149 34 0
-149 -56 0
149 -23 43 15 -60 -64 33 29 83 -34 56 0
-150 59 0
-150 85 0
-150 -8 0
-150 -91 0
-150 14 0
-150 51 0
-150 -35 0
-150 -44 0
-150 25 0
-150 75 0
150 -59 -85 8 91 -14 -51 35 44 -25 -75 0
141 142 143 144 145 146 147 148 149 150 0
-151 -67 0
-151 15 0
-151 21 0
-151 46 0
-151 66 0
-151 49 0
-151 -61 0
-151 11 0
-151 59 0
-151 -55 0
151 67 -15 -21 -46 -66 -49 61 -11 -59 55 0
-152 44 0
-152 41 0
-152 68 0
-152 -38 0
-152 4 0
-152 -7 0
-152 -42 0
-152 -28 0
-152 -65 0
-152 -1 0
152 -44 -41 -68 38 -4 7 42 28 65 1 0
-153 39 0
-153 -50 0
-153 80 0
-153 37 0
-153 7 0
-153 -85 0
-153 65 0
-153 51 0
-153 -86 0
-153 100 0
153 -39 50 -80 -37 -7 85 -65 -51 86 -100 0
-154 -68 0
-154 -77 0
-154 -36 0
-154 -30 0
-154 -28 0
-154 55 0
-154 99 0
-154 74 0
-154 -51 0
-154 -83 0
154 68 77 36 30 28 -55 -99 -74 51 83 0
-155 24 0
-155 26 0
-155 67 0
-155 25 0
-155 98 0
-155 54 0
-155 -35 0
-155 56 0
-155 28 0
-155 95 0
155 -24 -26 -67 -25 -98 -54 35 -56 -28 -95 0
-156 86 0
-156 39 0
-156 15 0
-156 49 0
-156 -38 0
-156 -32 0
-156 65 0
-156 -6 0
-156 33 0
-156 -96 0
156 -86 -39 -15 -49 38 32 -65 6 -33 96 0
-157 47 0
-157 78 0
-157 -44 0
-157 -80 0
-157 -39 0
-157 -85 0
-157 26 0
-157 33 0
-157 66 0
-157 -94 0
157 -47 -78 44 80 39 85 -26 -33 -66 94 0
-158 85 0
-158 56 0
-158 -27 0
-158 -67 0
-158 -81 0
-158 -79 0
-158 -17 0
-158 -6 0
-158 50 0
-158 -14 0
158 -85 -56 27 67 81 79 17 6 -50 14 0
-159 -81 0
-159 -25 0
-159 -2 0
-159 13 0
-159 -72 0
-159 -82 0
-159 -96 0
-159 -16 0
-159 65 0
-159 -67 0
159 81 25 2 -13 72 82 96 16 -65 67 0
-160 70 0
-160 50 0
-160 -29 0
-160 31 0
-160 95 0
-160 80 0
-160 61 0
-160 -71 0
-160 69 0
-160 -64 0
160 -70 -50 29 -31 -95 -80 -61 71 -69 64 0
151 152 153 154 155 156 157 158 159 160 0
-161 -12 0
-161 36 0
-161 81 0
-161 75 0
-161 -55 0
-161 57 0
-161 -43 0
-161 73 0
-161 58 0
-161 -40 0
161 12 -36 -81 -75 55 -57 43 -73 -58 40 0
-162 -98 0
-162 -56 0
-162 -2 0
-162 17 0
-162 86 0
-162 52 0
-162 -64 0
-162 12 0
-162 -11 0
-162 28 0
162 98 56 2 -17 -86 -52 64 -12 11 -28 0
-163 34 0
-163 -100 0
-163 11 0
-163 -76 0
-163 -30 0
-163 -27 0
-163 -92 0
-163 -42 0
-163 -1 0
-163 -4 0
163 -34 100 -11 76 30 27 92 42 1 4 0
-164 54 0
-164 -53 0
-164 -45 0
-164 35 0
-164 86 0
-164 37 0
-164 -78 0
-164 -95 0
-164 19 0
-164 -44 0
164 -54 53 45 -35 -86 -37 78 95 -19 44 0
-165 -44 0
-165 79 0
-165 -33 0
-165 73 0
-165 -6 0
-165 -8 0
-165 -96 0
-165 -37 0
-165 49 0
-165 20 0
165 44 -79 33 -73 6 8 96 37 -49 -20 0
-166 -97 0
-166 -80 0
-166 54 0
-166 74 0
-166 93 0
-166 8 0
-166 55 0
-166 -39 0
-166 91 0
-166 -18 0
166 97 80 -54 -74 -93 -8 -55 39 -91 18 0
-167 -75 0
-167 46 0
-167 30 0
-167 74 0
-167 -12 0
-167 4 0
-167 56 0
-167 -95 0
-167 -19 0
-167 45 0
167 75 -46 -30 -74 12 -4 -56 95 19 -45 0
-168 51 0
-168 -8 0
-168 -52 0
-168 80 0
-168 -47 0
-168 -40 0
-168 69 0
-168 -86 0
-168 -82 0
-168 70 0
168 -51 8 52 -80 47 40 -69 86 82 -70 0
-169 95 0
-169 -83 0
-169 -79 0
-169 33 0
-169 -93 0
-169 63 0
-169 11 0
-169 -69 0
-169 -22 0
-169 -66 0
169 -95 83 79 -33 93 -63 -11 69 22 66 0
-170 -42 0
-170 -91 0
-170 -82 0
-170 -100 0
-170 -38 0
-170 97 0
-170 61 0
-170 93 0
-170 74 0
-170 99 0
170 42 91 82 100 38 -97 -61 -93 -74 -99 0
161 162 163 164 165 166 167 168 169 170 0
-171 -44 0
-171 30 0
-171 -43 0
-171 -40 0
-171 -29 0
-171 -50 0
-171 96 0
-171 76 0
-171 12 0
-171 8 0
171 44 -30 43 40 29 50 -96 -76 -12 -8 0
-172 -17 0
-172 8 0
-172 -68 0
-172 -95 0
-172 56 0
-172 73 0
-172 37 0
-172 -98 0
-172 12 0
-172 32 0
172 17 -8 68 95 -56 -73 -37 98 -12 -32 0
-173 51 0
-173 29 0
-173 -100 0
-173 86 0
-173 -85 0
-173 -7 0
-173 30 0
-173 -73 0
-173 66 0
-173 -94 0
173 -51 -29 100 -86 85 7 -30 73 -66 94 0
-174 -33 0
-174 -37 0
-174 63 0
-174 -25 0
-174 95 0
-174 72 0
-174 15 0
-174 53 0
-174 -75 0
-174 6 0
174 33 37 -63 25 -95 -72 -15 -53 75 -6 0
-175 89 0
-175 -100 0
-175 87 0
-175 -69 0
-175 72 0
-175 96 0
-175 66 0
-175 53 0
-175 70 0
-175 40 0
175 -89 100 -87 69 -72 -96 -66 -53 -70 -40 0
-176 -7 0
-176 -100 0
-176 88 0
-176 -65 0
-176 36 0
-176 43 0
-176 31 0
-176 -46 0
-176 -35 0
-176 39 0
176 7 100 -88 65 -36 -43 -31 46 35 -39 0
-177 -70 0
-177 77 0
-177 -11 0
-177 -68 0
-177 -61 0
-177 71 0
-177 -75 0
-177 -13 0
-177 83 0
-177 -99 0
177 70 -77 11 68 61 -71 75 13 -83 99 0
-178 10 0
-178 21 0
-178 -68 0
-178 -67 0
-178 -49 0
-178 -27 0
-178 79 0
-178 -72 0
-178 17 0
-178 75 0
178 -10 -21 68 67 49 27 -79 72 -17 -75 0
-179 -33 0
-179 74 0
-179 97 0
-179 93 0
-179 79 0
-179 25 0
-179 -7 0
-179 -57 0
-179 -16 0
-179 68 0
179 33 -74 -97 -93 -79 -25 7 57 16 -68 0
-180 -31 0
-180 93 0
-180 -8 0
-180 58 0
-180 -62 0
-180 -16 0
-180 -77 0
-180 60 0
-180 12 0
-180 19 0
180 31 -93 8 -58 62 16 77 -60 -12 -19 0
171 172 173 174 175 176 177 178 179 180 0
-181 -90 0
-181 -30 0
-181 100 0
-181 1 0
-181 -68 0
-181 -23 0
-181 -14 0
-181 -3 0
-181 54 0
-181 -53 0
181 90 30 -100 -1 68 23 14 3 -54 53 0
-182 -77 0
-182 -65 0
-182 -45 0
-182 -47 0
-182 38 0
-182 11 0
-182 -92 0
-182 74 0
-182 -17 0
-182 -76 0
182 77 65 45 47 -38 -11 92 -74 17 76 0
-183 67 0
-183 30 0
-183 27 0
-183 64 0
-183 -53 0
-183 43 0
-183 -28 0
-183 -32 0
-183 79 0
-183 -60 0
183 -67 -30 -27 -64 53 -43 28 32 -79 60 0
-184 74 0
-184 100 0
-184 -58 0
-184 38 0
-184 -51 0
-184 63 0
-184 20 0
-184 -29 0
-184 2 0
-184 -69 0
184 -74 -100 58 -38 51 -63 -20 29 -2 69 0
-185 10 0
-185 -37 0
-185 -33 0
-185 88 0
-185 -19 0
-185 74 0
-185 4 0
-185 11 0
-185 -15 0
-185 -85 0
185 -10 37 33 -88 19 -74 -4 -11 15 85 0
-186 93 0
-186 73 0
-186 52 0
-186 64 0
-186 -81 0
-186 39 0
-186 -53 0
-186 57 0
-186 9 0
-186 13 0
186 -93 -73 -52 -64 81 -39 53 -57 -9 -13 0
-187 -53 0
-187 -11 0
-187 89 0
-187 -36 0
-187 -100 0
-187 30 0
-187 -90 0
-187 -55 0
-187 -10 0
-187 63 0
187 53 11 -89 36 100 -30 90 55 10 -63 0
-188 -89 0
-188 1 0
-188 -61 0
-188 77 0
-188 -34 0
-188 -4 0
-188 -6 0
-188 -9 0
-188 42 0
-188 -96 0
188 89 -1 61 -77 34 4 6 9 -42 96 0
-189 -36 0
-189 -30 0
-189 24 0
-189 12 0
-189 -63 0
-189 85 0
-189 3 0
-189 -59 0
-189 -34 0
-189 -70 0
189 36 30 -24 -12 63 -85 -3 59 34 70 0
-190 33 0
-190 -39 0
-190 -18 0
-190 72 0
-190 -61 0
-190 -82 0
-190 -24 0
-190 -37 0
-190 86 0
-190 -12 0
190 -33 39 18 -72 61 82 24 37 -86 12 0
181 182 183 184 185 186 187 188 189 190 0
-191 78 0
-191 -75 0
-191 -3 0
-191 -11 0
-191 62 0
-191 69 0
-191 -80 0
-191 -64 0
-191 74 0
-191 -81 0
191 -78 75 3 11 -62 -69 80 64 -74 81 0
-192 80 0
-192 -47 0
-192 -7 0
-192 -32 0
-192 1 0
-192 67 0
-192 -15 0
-192 -86 0
-192 -62 0
-192 -8 0
192 -80 47 7 32 -1 -67 15 86 62 8 0
-193 -95 0
-193 -70 0
-193 41 0
-193 -71 0
-193 -25 0
-193 -85 0
-193 97 0
-193 16 0
-193 27 0
-193 12 0
193 95 70 -41 71 25 85 -97 -16 -27 -12 0
-194 -88 0
-194 -30 0
-194 45 0
-194 -97 0
-194 2 0
-194 69 0
-194 -82 0
-194 89 0
-194 68 0
-194 86 0
194 88 30 -45 97 -2 -69 82 -89 -68 -86 0
-195 15 0
-195 -72 0
-195 33 0
-195 31 0
-195 86 0
-195 10 0
-195 24 0
-195 56 0
-195 -19 0
-195 -63 0
195 -15 72 -33 -31 -86 -10 -24 -56 19 63 0
-196 71 0
-196 34 0
-196 -46 0
-196 64 0
-196 -36 0
-196 11 0
-196 87 0
-196 16 0
-196 -88 0
-196 12 0
196 -71 -34 46 -64 36 -11 -87 -16 88 -12 0
-197 -40 0
-197 -59 0
-197 -63 0
-197 -45 0
-197 18 0
-197 70 0
-197 49 0
-197 72 0
-197 -76 0
-197 -84 0
197 40 59 63 45 -18 -70 -49 -72 76 84 0
-198 15 0
-198 66 0
-198 -58 0
-198 -41 0
-198 -63 0
-198 -47 0
-198 22 0
-198 83 0
-198 14 0
-198 10 0
198 -15 -66 58 41 63 47 -22 -83 -14 -10 0
-199 -2 0
-199 -40 0
-199 -73 0
-199 -26 0
-199 -19 0
-199 81 0
-199 -56 0
-199 53 0
-199 -15 0
-199 21 0
199 2 40 73 26 19 -81 56 -53 15 -21 0
-200 -48 0
-200 21 0
-200 -12 0
-200 14 0
-200 -94 0
-200 17 0
-200 86 0
-200 -38 0
-200 53 0
-200 -76 0
200 48 -21 12 -14 94 -17 -86 38 -53 76 0
191 192 193 194 195 196 197 198 199 200 0
